c description: Subset cardinality formula for complete_bipartite_graph(4,4)
c generator: CNFgen (0.9.0)
c copyright: (C) 2012-2020 Massimo Lauria <massimo.lauria@uniroma1.it>
c url: https://massimolauria.net/cnfgen
c
p cnf 16 32
1 2 3 0
1 2 4 0
1 3 4 0
2 3 4 0
5 6 7 0
5 6 8 0
5 7 8 0
6 7 8 0
9 10 11 0
9 10 12 0
9 11 12 0
10 11 12 0
13 14 15 0
13 14 16 0
13 15 16 0
14 15 16 0
-1 -5 -9 0
-1 -5 -13 0
-1 -9 -13 0
-5 -9 -13 0
-2 -6 -10 0
-2 -6 -14 0
-2 -10 -14 0
-6 -10 -14 0
-3 -7 -11 0
-3 -7 -15 0
-3 -11 -15 0
-7 -11 -15 0
-4 -8 -12 0
-4 -8 -16 0
-4 -12 -16 0
-8 -12 -16 0